%nprocshared=32
%mem=100gb
%chk=xyz/host_2F.chk
# opt b3lyp/6-311++g(d,p)

host_2_opt

-1 2
C -2.168746 3.182423 -1.786170
C -1.656846 2.403223 -3.010670
C -0.814546 1.164123 -2.726770
C -1.421946 -0.106477 -2.593970
C -0.640246 -1.278777 -2.500570
C -1.305746 -2.647277 -2.457270
C -1.562946 -3.234277 -3.861170
C 0.766154 -1.170077 -2.497870
C 1.391854 0.092923 -2.541070
C 2.910554 0.199823 -2.530370
C 3.523854 0.196623 -3.946670
C 0.594154 1.253723 -2.639570
C 1.272154 2.613123 -2.586370
N 1.514654 3.056723 -1.186770
C 1.162554 2.398523 -0.083070
N 1.503154 3.065923 1.018930
C 2.129854 4.264423 0.624930
C 2.664754 5.302823 1.351330
C 3.232254 6.382623 0.635230
C 3.804854 7.492423 1.316630
C 4.353054 8.535723 0.617430
C 4.360254 8.529723 -0.801670
C 3.819354 7.480623 -1.497570
C 3.239654 6.376623 -0.812870
C 2.679554 5.290723 -1.525570
C 2.137254 4.258223 -0.796170
C 1.256354 2.627223 2.417130
C 0.591754 1.261323 2.498530
C -0.815546 1.168423 2.501530
C -1.669446 2.428023 2.459230
C -2.005746 2.972923 3.863530
C -1.422146 -0.103477 2.593830
C -0.640046 -1.274577 2.726030
C -1.297846 -2.621277 3.007830
C -1.698146 -3.460577 1.781630
C 0.767254 -1.162377 2.639930
C 1.391154 0.100323 2.541830
C 2.909554 0.211823 2.531330
C 3.515954 0.302423 3.947730
C 1.632154 -2.411177 2.586830
N 1.931554 -2.818677 1.187130
C 1.497154 -2.211477 0.083530
N 1.921454 -2.828977 -1.018470
C 2.699254 -3.935377 -0.624570
C 3.364454 -4.895477 -1.350970
C 4.066754 -5.893077 -0.635070
C 4.777954 -6.919477 -1.316370
C 5.455954 -7.883477 -0.617270
C 5.462254 -7.876777 0.801730
C 4.790554 -6.906177 1.497730
C 4.073254 -5.886177 0.813130
C 3.377354 -4.881877 1.525930
C 2.705754 -3.928477 0.796530
C 1.618254 -2.427477 -2.416570
C -2.936746 -0.201377 2.508430
N -3.426546 -0.227977 1.103030
C -2.678146 -0.196477 -0.000070
N -3.424846 -0.253877 -1.103170
C -4.775146 -0.330277 -0.710470
C -5.939746 -0.408677 -1.438470
C -7.158946 -0.474277 -0.724270
C -8.403946 -0.557877 -1.407370
C -9.581746 -0.622077 -0.709770
C -9.582746 -0.606377 0.709230
C -8.405946 -0.526677 1.406830
C -7.159946 -0.458277 0.723830
C -5.941846 -0.376377 1.438030
C -4.776146 -0.313677 0.710130
C -2.935046 -0.224777 -2.508570
H -2.757346 4.042123 -2.112070
H -2.811046 2.568523 -1.149970
H -1.348846 3.562123 -1.171470
H -1.089246 3.081523 -3.648570
H -2.508546 2.120123 -3.630370
H -2.250246 -2.594477 -1.913270
H -0.696746 -3.347477 -1.882770
H -2.039046 -4.213277 -3.781270
H -2.214846 -2.589877 -4.455570
H -0.635046 -3.355777 -4.424870
H 3.344154 -0.617477 -1.951070
H 3.224954 1.104423 -2.007070
H 4.611154 0.274023 -3.888870
H 3.279554 -0.718477 -4.490970
H 3.157854 1.032223 -4.547670
H 0.674254 3.388523 -3.059770
H 2.238054 2.605623 -3.089170
H 0.664354 1.448923 -0.080570
H 2.662154 5.315123 2.434530
H 3.801554 7.501623 2.400630
H 4.786054 9.375223 1.147830
H 4.798754 9.364723 -1.334670
H 3.827154 7.480623 -2.581670
H 2.688354 5.293923 -2.608870
H 0.647654 3.395523 2.890830
H 2.218654 2.631323 2.926130
H -2.597646 2.241223 1.916830
H -1.167246 3.207723 1.883630
H -2.617946 3.873123 3.784030
H -2.557046 2.241823 4.459430
H -1.104046 3.227223 4.425430
H -2.178946 -2.463177 3.630830
H -0.638346 -3.214877 3.641630
H -2.156746 -4.396877 2.105530
H -2.424246 -2.942177 1.150530
H -0.834846 -3.716577 1.162430
H 3.221654 1.082723 1.952130
H 3.350454 -0.638377 2.008030
H 4.603054 0.382223 3.890130
H 3.142554 1.172623 4.492630
H 3.273754 -0.577477 4.548230
H 1.151954 -3.263177 3.062630
H 2.588354 -2.265577 3.087230
H 0.879654 -1.334777 0.081230
H 3.363954 -4.907677 -2.434270
H 4.776054 -6.928877 -2.400470
H 5.993654 -8.660077 -1.147770
H 6.004754 -8.648377 1.334730
H 4.798254 -6.905377 2.581830
H 3.386854 -4.883777 2.609230
H 1.125654 -3.273877 -2.892270
H 2.572254 -2.294277 -2.923870
H -3.424746 0.640923 2.996630
H -3.313846 -1.104177 2.983430
H -1.607646 -0.132977 0.000030
H -5.947546 -0.422077 -2.521670
H -8.408346 -0.570277 -2.491370
H -10.523446 -0.685577 -1.241470
H -10.525246 -0.658177 1.240830
H -8.411846 -0.515077 2.490830
H -5.951146 -0.365377 2.521230
H -3.435946 0.611023 -2.991570
H -3.298346 -1.132177 -2.988970
Cl 1.000000 0.000000 0.000000

